
  22   10
  10   10   10   10   10   10   10   10   10   10

   0   0   0   0   0   0   0   0   0   0   0   1 2 
   9   0   0   0   0   0  10   0   0   0   0   1 3 
   5   0   0   0   0  10   0   0   0   0   0   2 5 4 
   1   0   0   0   0   0   0  10   0   0   0   2 8 6 
   2   0   0   0   0  10   0   0   0   0   0   1 6 
   4  10   0   0   0   0   0   0   0   0   0   2 9 7 
   5   0   0   0   0   0   0   0  10   0   0   4 17 12 11 10 
   7   0  10   0   0   0   0   0   0   0   0   3 14 10 9 
  10   0   0   0   0   0  10   0   0   0   0   2 17 13 
   2   0   0   0   0  10   0   0   0   0   0   1 13 
   4   0   0   0  10   0   0   0   0   0   0   1 14 
   9   0   0   0   0   0   0   0  10   0   0   1 13 
   2   0   0   0  10   0   0   0   0   0   0   2 18 15 
   1   0   0   0   0   0   0  10   0   0   0   2 18 15 
   9   0   0   0   0   0  10   0   0   0   0   2 21 16 
   4   0   0   0   0   0   0   0   0   0  10   2 20 19 
   6   0   0   0   0   0   0   0   0   0  10   1 18 
   4   0   0   0   0   0  10   0   0   0   0   1 19 
   3   0   0   0  10   0   0   0   0   0   0   1 22
   2   0   0  10   0   0   0   0   0   0   0   1 22
  10   0   0   0   0  10   0   0   0   0   0   1 22
   0   0   0   0   0   0   0   0   0   0   0   0 
